Strategies:  

WARNING: for repeatability, setting FPU to use double precision
============================[ Problem Statistics ]=============================
|                                                                             |
|  Number of variables:           999                                         |
|  Number of clauses:            9072                                         |
|  Parse time:                   0.00 s                                       |
|  Eliminated clauses:           0.00 Mb                                      |
|  Simplification time:          0.00 s                                       |
|                                                                             |
============================[ Search Statistics ]==============================
| Conflicts |          ORIGINAL         |          LEARNT          | Progress |
|           |    Vars  Clauses Literals |    Limit  Clauses Lit/Cl |          |
===============================================================================
===============================================================================
restarts              : 1
conflicts             : 2              (500 /sec)
decisions             : 9              (0.00 % random) (2250 /sec)
propagations          : 837            (209250 /sec)
conflict literals     : 3              (0.00 % deleted)
Memory used           : 22.00 MB
CPU time              : 0.004 s

SATISFIABLE


Strategies: -b -p  

WARNING: for repeatability, setting FPU to use double precision
============================[ Problem Statistics ]=============================
|                                                                             |
|  Number of variables:           999                                         |
|  Number of clauses:          338580                                         |
|  Parse time:                   0.26 s                                       |
|  Eliminated clauses:           0.00 Mb                                      |
|  Simplification time:         22.62 s                                       |
|                                                                             |
============================[ Search Statistics ]==============================
| Conflicts |          ORIGINAL         |          LEARNT          | Progress |
|           |    Vars  Clauses Literals |    Limit  Clauses Lit/Cl |          |
===============================================================================
===============================================================================
restarts              : 1
conflicts             : 1              (0 /sec)
decisions             : 2              (0.00 % random) (0 /sec)
propagations          : 771            (34 /sec)
conflict literals     : 1              (0.00 % deleted)
Memory used           : 91.00 MB
CPU time              : 22.872 s

SATISFIABLE


Strategies: -b -x  

WARNING: for repeatability, setting FPU to use double precision
============================[ Problem Statistics ]=============================
|                                                                             |
|  Number of variables:           999                                         |
|  Number of clauses:          302292                                         |
|  Parse time:                   0.20 s                                       |
|  Eliminated clauses:           0.00 Mb                                      |
|  Simplification time:          0.30 s                                       |
|                                                                             |
============================[ Search Statistics ]==============================
| Conflicts |          ORIGINAL         |          LEARNT          | Progress |
|           |    Vars  Clauses Literals |    Limit  Clauses Lit/Cl |          |
===============================================================================
===============================================================================
restarts              : 1
conflicts             : 1              (2 /sec)
decisions             : 3              (0.00 % random) (6 /sec)
propagations          : 770            (1540 /sec)
conflict literals     : 1              (0.00 % deleted)
Memory used           : 77.00 MB
CPU time              : 0.5 s

SATISFIABLE


Strategies: -b -x -p  

WARNING: for repeatability, setting FPU to use double precision
============================[ Problem Statistics ]=============================
|                                                                             |
|  Number of variables:           999                                         |
|  Number of clauses:          628884                                         |
|  Parse time:                   0.46 s                                       |
|  Eliminated clauses:           0.00 Mb                                      |
|  Simplification time:         22.72 s                                       |
|                                                                             |
============================[ Search Statistics ]==============================
| Conflicts |          ORIGINAL         |          LEARNT          | Progress |
|           |    Vars  Clauses Literals |    Limit  Clauses Lit/Cl |          |
===============================================================================
===============================================================================
restarts              : 1
conflicts             : 1              (0 /sec)
decisions             : 2              (0.00 % random) (0 /sec)
propagations          : 771            (33 /sec)
conflict literals     : 1              (0.00 % deleted)
Memory used           : 142.00 MB
CPU time              : 23.188 s

SATISFIABLE


Strategies: -b -a  

WARNING: for repeatability, setting FPU to use double precision
============================[ Problem Statistics ]=============================
|                                                                             |
|  Number of variables:           999                                         |
|  Number of clauses:          956772                                         |
|  Parse time:                   1.00 s                                       |
|  Eliminated clauses:           0.00 Mb                                      |
|  Simplification time:          2.54 s                                       |
|                                                                             |
============================[ Search Statistics ]==============================
| Conflicts |          ORIGINAL         |          LEARNT          | Progress |
|           |    Vars  Clauses Literals |    Limit  Clauses Lit/Cl |          |
===============================================================================
===============================================================================
restarts              : 1
conflicts             : 1              (0 /sec)
decisions             : 3              (0.00 % random) (1 /sec)
propagations          : 770            (218 /sec)
conflict literals     : 1              (0.00 % deleted)
Memory used           : 287.00 MB
CPU time              : 3.54 s

SATISFIABLE


Strategies: -b  

WARNING: for repeatability, setting FPU to use double precision
============================[ Problem Statistics ]=============================
|                                                                             |
|  Number of variables:           999                                         |
|  Number of clauses:           11988                                         |
|  Parse time:                   0.00 s                                       |
|  Eliminated clauses:           0.00 Mb                                      |
|  Simplification time:          0.01 s                                       |
|                                                                             |
============================[ Search Statistics ]==============================
| Conflicts |          ORIGINAL         |          LEARNT          | Progress |
|           |    Vars  Clauses Literals |    Limit  Clauses Lit/Cl |          |
===============================================================================
===============================================================================
restarts              : 1
conflicts             : 1              (83 /sec)
decisions             : 3              (0.00 % random) (250 /sec)
propagations          : 770            (64167 /sec)
conflict literals     : 1              (0.00 % deleted)
Memory used           : 23.00 MB
CPU time              : 0.012 s

SATISFIABLE


